
Value of objective function: 122.5

Actual values of the variables:
x1                             40
x2                           10.5
x3                           19.5
x4                              3
